============================[ Problem Statistics ]=============================|                                                                             ||  Number of variables:          4242                                         ||  Number of clauses:           10112                                         ||  Parse time:                   0.50 s                                       ||                                                                             |============================[ Search Statistics ]==============================| Conflicts |          ORIGINAL         |          LEARNT          | Progress ||           |    Vars  Clauses Literals |    Limit  Clauses Lit/Cl |          |===============================================================================|       100 |    1591     6317   797748 |     2316      100     53 | 62.501 % ||       250 |    1591     6317   797748 |     2547      250     75 | 62.495 % |===============================================================================restarts              : 3conflicts             : 280            (368 /sec)decisions             : 544            (0.00 % random) (716 /sec)propagations          : 11812          (15542 /sec)conflict literals     : 21753          (94.80 % deleted)CPU time              : 0.76 sSATISFIABLE